266024
45,64,80,37,18,71,9,77,35,72,43,47,49,60,11,22,25,79,68,2,6,15,30,42,12,55,34,53,61,78,23,21,36,14,62,67,70,76,66,26,20,29,10,73,1,46,74,16,24,5,44,59,63,27,33,83,28,8,50,4,65,13,39,52,41,69,17,32,3,81,31,56,40,58,38,57,7,51,82,75,19,48,54